GAACT_v0/CEOA/12/5400/gurobi.lp
\ LP format - for model browsing. Use MPS format to capture full model detail.
Minimize
  2.66 hs + 5.05 fs + 2.66 ac32s + 4.78 ac42s
Subject To
 R0: V0_0 = 1
 R1: V0_1 = 2
 R2: V0_2 = 3
 R3: V0_3 = 4
 R4: V0_4 = 5
 R5: V0_5 = 6
 R6: V0_6 = 7
 R7: V0_7 = 8
 R8: V0_8 = 9
 R9: V0_9 = 10
 R10: V0_10 = 11
 R11: V0_11 = 12
 R12: V0_12 = 11
 R13: V0_13 = 10
 R14: V0_14 = 9
 R15: V0_15 = 8
 R16: V0_16 = 7
 R17: V0_17 = 6
 R18: V0_18 = 5
 R19: V0_19 = 4
 R20: V0_20 = 3
 R21: V0_21 = 2
 R22: V0_22 = 1
 R23: V0_23 = 0
 R24: V0_24 = 0
 R25: V0_25 = 0
 R26: V1_0 = 1
 R27: f1_0 = 0
 R28: h1_0 = 0
 R29: 32ac1_0 = 0
 R30: 42ac1_0 = 0
 R31: e1_0 = 0
 R32: - 0.015625 32ac1_1 - 0.0546875 42ac1_1 + e1_1 = 0
 R33: - V0_1 + 3 f1_1 + 2 h1_1 + 3 32ac1_1 + 4 42ac1_1 <= 0
 R34: - V0_1 - f1_0 - h1_0 + 2 f1_1 + h1_1 + 32ac1_1 + 2 42ac1_1 + V1_1
   = 0
 R35: - 0.015625 32ac1_2 - 0.0546875 42ac1_2 + e1_2 = 0
 R36: - V0_2 + 3 f1_2 + 2 h1_2 + 3 32ac1_2 + 4 42ac1_2 <= 0
 R37: - V0_2 - f1_1 - h1_1 + 2 f1_2 + h1_2 + 32ac1_2 + 2 42ac1_2 + V1_2
   = 0
 R38: - 0.015625 32ac1_3 - 0.0546875 42ac1_3 + e1_3 = 0
 R39: - V0_3 + 3 f1_3 + 2 h1_3 + 3 32ac1_3 + 4 42ac1_3 <= 0
 R40: - V0_3 - f1_2 - h1_2 + 2 f1_3 + h1_3 + 32ac1_3 + 2 42ac1_3 + V1_3
   = 0
 R41: - 0.015625 32ac1_4 - 0.0546875 42ac1_4 + e1_4 = 0
 R42: - V0_4 + 3 f1_4 + 2 h1_4 + 3 32ac1_4 + 4 42ac1_4 <= 0
 R43: - V0_4 - f1_3 - h1_3 + 2 f1_4 + h1_4 + 32ac1_4 + 2 42ac1_4 + V1_4
   = 0
 R44: - 0.015625 32ac1_5 - 0.0546875 42ac1_5 + e1_5 = 0
 R45: - V0_5 + 3 f1_5 + 2 h1_5 + 3 32ac1_5 + 4 42ac1_5 <= 0
 R46: - V0_5 - f1_4 - h1_4 + 2 f1_5 + h1_5 + 32ac1_5 + 2 42ac1_5 + V1_5
   = 0
 R47: - 0.015625 32ac1_6 - 0.0546875 42ac1_6 + e1_6 = 0
 R48: - V0_6 + 3 f1_6 + 2 h1_6 + 3 32ac1_6 + 4 42ac1_6 <= 0
 R49: - V0_6 - f1_5 - h1_5 + 2 f1_6 + h1_6 + 32ac1_6 + 2 42ac1_6 + V1_6
   = 0
 R50: - 0.015625 32ac1_7 - 0.0546875 42ac1_7 + e1_7 = 0
 R51: - V0_7 + 3 f1_7 + 2 h1_7 + 3 32ac1_7 + 4 42ac1_7 <= 0
 R52: - V0_7 - f1_6 - h1_6 + 2 f1_7 + h1_7 + 32ac1_7 + 2 42ac1_7 + V1_7
   = 0
 R53: - 0.015625 32ac1_8 - 0.0546875 42ac1_8 + e1_8 = 0
 R54: - V0_8 + 3 f1_8 + 2 h1_8 + 3 32ac1_8 + 4 42ac1_8 <= 0
 R55: - V0_8 - f1_7 - h1_7 + 2 f1_8 + h1_8 + 32ac1_8 + 2 42ac1_8 + V1_8
   = 0
 R56: - 0.015625 32ac1_9 - 0.0546875 42ac1_9 + e1_9 = 0
 R57: - V0_9 + 3 f1_9 + 2 h1_9 + 3 32ac1_9 + 4 42ac1_9 <= 0
 R58: - V0_9 - f1_8 - h1_8 + 2 f1_9 + h1_9 + 32ac1_9 + 2 42ac1_9 + V1_9
   = 0
 R59: - 0.015625 32ac1_10 - 0.0546875 42ac1_10 + e1_10 = 0
 R60: - V0_10 + 3 f1_10 + 2 h1_10 + 3 32ac1_10 + 4 42ac1_10 <= 0
 R61: - V0_10 - f1_9 - h1_9 + 2 f1_10 + h1_10 + 32ac1_10 + 2 42ac1_10
   + V1_10 = 0
 R62: - 0.015625 32ac1_11 - 0.0546875 42ac1_11 + e1_11 = 0
 R63: - V0_11 + 3 f1_11 + 2 h1_11 + 3 32ac1_11 + 4 42ac1_11 <= 0
 R64: - V0_11 - f1_10 - h1_10 + 2 f1_11 + h1_11 + 32ac1_11 + 2 42ac1_11
   + V1_11 = 0
 R65: - 0.015625 32ac1_12 - 0.0546875 42ac1_12 + e1_12 = 0
 R66: - V0_12 + 3 f1_12 + 2 h1_12 + 3 32ac1_12 + 4 42ac1_12 <= 0
 R67: - V0_12 - f1_11 - h1_11 + 2 f1_12 + h1_12 + 32ac1_12 + 2 42ac1_12
   + V1_12 = 0
 R68: - 0.015625 32ac1_13 - 0.0546875 42ac1_13 + e1_13 = 0
 R69: - V0_13 + 3 f1_13 + 2 h1_13 + 3 32ac1_13 + 4 42ac1_13 <= 0
 R70: - V0_13 - f1_12 - h1_12 + 2 f1_13 + h1_13 + 32ac1_13 + 2 42ac1_13
   + V1_13 = 0
 R71: - 0.015625 32ac1_14 - 0.0546875 42ac1_14 + e1_14 = 0
 R72: - V0_14 + 3 f1_14 + 2 h1_14 + 3 32ac1_14 + 4 42ac1_14 <= 0
 R73: - V0_14 - f1_13 - h1_13 + 2 f1_14 + h1_14 + 32ac1_14 + 2 42ac1_14
   + V1_14 = 0
 R74: - 0.015625 32ac1_15 - 0.0546875 42ac1_15 + e1_15 = 0
 R75: - V0_15 + 3 f1_15 + 2 h1_15 + 3 32ac1_15 + 4 42ac1_15 <= 0
 R76: - V0_15 - f1_14 - h1_14 + 2 f1_15 + h1_15 + 32ac1_15 + 2 42ac1_15
   + V1_15 = 0
 R77: - 0.015625 32ac1_16 - 0.0546875 42ac1_16 + e1_16 = 0
 R78: - V0_16 + 3 f1_16 + 2 h1_16 + 3 32ac1_16 + 4 42ac1_16 <= 0
 R79: - V0_16 - f1_15 - h1_15 + 2 f1_16 + h1_16 + 32ac1_16 + 2 42ac1_16
   + V1_16 = 0
 R80: - 0.015625 32ac1_17 - 0.0546875 42ac1_17 + e1_17 = 0
 R81: - V0_17 + 3 f1_17 + 2 h1_17 + 3 32ac1_17 + 4 42ac1_17 <= 0
 R82: - V0_17 - f1_16 - h1_16 + 2 f1_17 + h1_17 + 32ac1_17 + 2 42ac1_17
   + V1_17 = 0
 R83: - 0.015625 32ac1_18 - 0.0546875 42ac1_18 + e1_18 = 0
 R84: - V0_18 + 3 f1_18 + 2 h1_18 + 3 32ac1_18 + 4 42ac1_18 <= 0
 R85: - V0_18 - f1_17 - h1_17 + 2 f1_18 + h1_18 + 32ac1_18 + 2 42ac1_18
   + V1_18 = 0
 R86: - 0.015625 32ac1_19 - 0.0546875 42ac1_19 + e1_19 = 0
 R87: - V0_19 + 3 f1_19 + 2 h1_19 + 3 32ac1_19 + 4 42ac1_19 <= 0
 R88: - V0_19 - f1_18 - h1_18 + 2 f1_19 + h1_19 + 32ac1_19 + 2 42ac1_19
   + V1_19 = 0
 R89: - 0.015625 32ac1_20 - 0.0546875 42ac1_20 + e1_20 = 0
 R90: - V0_20 + 3 f1_20 + 2 h1_20 + 3 32ac1_20 + 4 42ac1_20 <= 0
 R91: - V0_20 - f1_19 - h1_19 + 2 f1_20 + h1_20 + 32ac1_20 + 2 42ac1_20
   + V1_20 = 0
 R92: - 0.015625 32ac1_21 - 0.0546875 42ac1_21 + e1_21 = 0
 R93: - V0_21 + 3 f1_21 + 2 h1_21 + 3 32ac1_21 + 4 42ac1_21 <= 0
 R94: - V0_21 - f1_20 - h1_20 + 2 f1_21 + h1_21 + 32ac1_21 + 2 42ac1_21
   + V1_21 = 0
 R95: - 0.015625 32ac1_22 - 0.0546875 42ac1_22 + e1_22 = 0
 R96: - V0_22 + 3 f1_22 + 2 h1_22 + 3 32ac1_22 + 4 42ac1_22 <= 0
 R97: - V0_22 - f1_21 - h1_21 + 2 f1_22 + h1_22 + 32ac1_22 + 2 42ac1_22
   + V1_22 = 0
 R98: - 0.015625 32ac1_23 - 0.0546875 42ac1_23 + e1_23 = 0
 R99: - V0_23 + 3 f1_23 + 2 h1_23 + 3 32ac1_23 + 4 42ac1_23 <= 0
 R100: - V0_23 - f1_22 - h1_22 + 2 f1_23 + h1_23 + 32ac1_23 + 2 42ac1_23
   + V1_23 = 0
 R101: - 0.015625 32ac1_24 - 0.0546875 42ac1_24 + e1_24 = 0
 R102: - V0_24 + 3 f1_24 + 2 h1_24 + 3 32ac1_24 + 4 42ac1_24 <= 0
 R103: - V0_24 - f1_23 - h1_23 + 2 f1_24 + h1_24 + 32ac1_24 + 2 42ac1_24
   + V1_24 = 0
 R104: - 0.015625 32ac1_25 - 0.0546875 42ac1_25 + e1_25 = 0
 R105: - V0_25 + 3 f1_25 + 2 h1_25 + 3 32ac1_25 + 4 42ac1_25 <= 0
 R106: - V0_25 - f1_24 - h1_24 + 2 f1_25 + h1_25 + 32ac1_25 + 2 42ac1_25
   + V1_25 = 0
 R107: V2_0 = 1
 R108: f2_0 = 0
 R109: h2_0 = 0
 R110: 32ac2_0 = 0
 R111: 42ac2_0 = 0
 R112: e2_0 = 0
 R113: - 0.015625 32ac2_1 - 0.0546875 42ac2_1 + e2_1 = 0
 R114: - V1_1 + 3 f2_1 + 2 h2_1 + 3 32ac2_1 + 4 42ac2_1 <= 0
 R115: - V1_1 - f2_0 - h2_0 + 2 f2_1 + h2_1 + 32ac2_1 + 2 42ac2_1 + V2_1
   = 0
 R116: - 0.015625 32ac2_2 - 0.0546875 42ac2_2 + e2_2 = 0
 R117: - V1_2 + 3 f2_2 + 2 h2_2 + 3 32ac2_2 + 4 42ac2_2 <= 0
 R118: - V1_2 - f2_1 - h2_1 + 2 f2_2 + h2_2 + 32ac2_2 + 2 42ac2_2 + V2_2
   = 0
 R119: - 0.015625 32ac2_3 - 0.0546875 42ac2_3 + e2_3 = 0
 R120: - V1_3 + 3 f2_3 + 2 h2_3 + 3 32ac2_3 + 4 42ac2_3 <= 0
 R121: - V1_3 - f2_2 - h2_2 + 2 f2_3 + h2_3 + 32ac2_3 + 2 42ac2_3 + V2_3
   = 0
 R122: - 0.015625 32ac2_4 - 0.0546875 42ac2_4 + e2_4 = 0
 R123: - V1_4 + 3 f2_4 + 2 h2_4 + 3 32ac2_4 + 4 42ac2_4 <= 0
 R124: - V1_4 - f2_3 - h2_3 + 2 f2_4 + h2_4 + 32ac2_4 + 2 42ac2_4 + V2_4
   = 0
 R125: - 0.015625 32ac2_5 - 0.0546875 42ac2_5 + e2_5 = 0
 R126: - V1_5 + 3 f2_5 + 2 h2_5 + 3 32ac2_5 + 4 42ac2_5 <= 0
 R127: - V1_5 - f2_4 - h2_4 + 2 f2_5 + h2_5 + 32ac2_5 + 2 42ac2_5 + V2_5
   = 0
 R128: - 0.015625 32ac2_6 - 0.0546875 42ac2_6 + e2_6 = 0
 R129: - V1_6 + 3 f2_6 + 2 h2_6 + 3 32ac2_6 + 4 42ac2_6 <= 0
 R130: - V1_6 - f2_5 - h2_5 + 2 f2_6 + h2_6 + 32ac2_6 + 2 42ac2_6 + V2_6
   = 0
 R131: - 0.015625 32ac2_7 - 0.0546875 42ac2_7 + e2_7 = 0
 R132: - V1_7 + 3 f2_7 + 2 h2_7 + 3 32ac2_7 + 4 42ac2_7 <= 0
 R133: - V1_7 - f2_6 - h2_6 + 2 f2_7 + h2_7 + 32ac2_7 + 2 42ac2_7 + V2_7
   = 0
 R134: - 0.015625 32ac2_8 - 0.0546875 42ac2_8 + e2_8 = 0
 R135: - V1_8 + 3 f2_8 + 2 h2_8 + 3 32ac2_8 + 4 42ac2_8 <= 0
 R136: - V1_8 - f2_7 - h2_7 + 2 f2_8 + h2_8 + 32ac2_8 + 2 42ac2_8 + V2_8
   = 0
 R137: - 0.015625 32ac2_9 - 0.0546875 42ac2_9 + e2_9 = 0
 R138: - V1_9 + 3 f2_9 + 2 h2_9 + 3 32ac2_9 + 4 42ac2_9 <= 0
 R139: - V1_9 - f2_8 - h2_8 + 2 f2_9 + h2_9 + 32ac2_9 + 2 42ac2_9 + V2_9
   = 0
 R140: - 0.015625 32ac2_10 - 0.0546875 42ac2_10 + e2_10 = 0
 R141: - V1_10 + 3 f2_10 + 2 h2_10 + 3 32ac2_10 + 4 42ac2_10 <= 0
 R142: - V1_10 - f2_9 - h2_9 + 2 f2_10 + h2_10 + 32ac2_10 + 2 42ac2_10
   + V2_10 = 0
 R143: - 0.015625 32ac2_11 - 0.0546875 42ac2_11 + e2_11 = 0
 R144: - V1_11 + 3 f2_11 + 2 h2_11 + 3 32ac2_11 + 4 42ac2_11 <= 0
 R145: - V1_11 - f2_10 - h2_10 + 2 f2_11 + h2_11 + 32ac2_11 + 2 42ac2_11
   + V2_11 = 0
 R146: - 0.015625 32ac2_12 - 0.0546875 42ac2_12 + e2_12 = 0
 R147: - V1_12 + 3 f2_12 + 2 h2_12 + 3 32ac2_12 + 4 42ac2_12 <= 0
 R148: - V1_12 - f2_11 - h2_11 + 2 f2_12 + h2_12 + 32ac2_12 + 2 42ac2_12
   + V2_12 = 0
 R149: - 0.015625 32ac2_13 - 0.0546875 42ac2_13 + e2_13 = 0
 R150: - V1_13 + 3 f2_13 + 2 h2_13 + 3 32ac2_13 + 4 42ac2_13 <= 0
 R151: - V1_13 - f2_12 - h2_12 + 2 f2_13 + h2_13 + 32ac2_13 + 2 42ac2_13
   + V2_13 = 0
 R152: - 0.015625 32ac2_14 - 0.0546875 42ac2_14 + e2_14 = 0
 R153: - V1_14 + 3 f2_14 + 2 h2_14 + 3 32ac2_14 + 4 42ac2_14 <= 0
 R154: - V1_14 - f2_13 - h2_13 + 2 f2_14 + h2_14 + 32ac2_14 + 2 42ac2_14
   + V2_14 = 0
 R155: - 0.015625 32ac2_15 - 0.0546875 42ac2_15 + e2_15 = 0
 R156: - V1_15 + 3 f2_15 + 2 h2_15 + 3 32ac2_15 + 4 42ac2_15 <= 0
 R157: - V1_15 - f2_14 - h2_14 + 2 f2_15 + h2_15 + 32ac2_15 + 2 42ac2_15
   + V2_15 = 0
 R158: - 0.015625 32ac2_16 - 0.0546875 42ac2_16 + e2_16 = 0
 R159: - V1_16 + 3 f2_16 + 2 h2_16 + 3 32ac2_16 + 4 42ac2_16 <= 0
 R160: - V1_16 - f2_15 - h2_15 + 2 f2_16 + h2_16 + 32ac2_16 + 2 42ac2_16
   + V2_16 = 0
 R161: - 0.015625 32ac2_17 - 0.0546875 42ac2_17 + e2_17 = 0
 R162: - V1_17 + 3 f2_17 + 2 h2_17 + 3 32ac2_17 + 4 42ac2_17 <= 0
 R163: - V1_17 - f2_16 - h2_16 + 2 f2_17 + h2_17 + 32ac2_17 + 2 42ac2_17
   + V2_17 = 0
 R164: - 0.015625 32ac2_18 - 0.0546875 42ac2_18 + e2_18 = 0
 R165: - V1_18 + 3 f2_18 + 2 h2_18 + 3 32ac2_18 + 4 42ac2_18 <= 0
 R166: - V1_18 - f2_17 - h2_17 + 2 f2_18 + h2_18 + 32ac2_18 + 2 42ac2_18
   + V2_18 = 0
 R167: - 0.015625 32ac2_19 - 0.0546875 42ac2_19 + e2_19 = 0
 R168: - V1_19 + 3 f2_19 + 2 h2_19 + 3 32ac2_19 + 4 42ac2_19 <= 0
 R169: - V1_19 - f2_18 - h2_18 + 2 f2_19 + h2_19 + 32ac2_19 + 2 42ac2_19
   + V2_19 = 0
 R170: - 0.015625 32ac2_20 - 0.0546875 42ac2_20 + e2_20 = 0
 R171: - V1_20 + 3 f2_20 + 2 h2_20 + 3 32ac2_20 + 4 42ac2_20 <= 0
 R172: - V1_20 - f2_19 - h2_19 + 2 f2_20 + h2_20 + 32ac2_20 + 2 42ac2_20
   + V2_20 = 0
 R173: - 0.015625 32ac2_21 - 0.0546875 42ac2_21 + e2_21 = 0
 R174: - V1_21 + 3 f2_21 + 2 h2_21 + 3 32ac2_21 + 4 42ac2_21 <= 0
 R175: - V1_21 - f2_20 - h2_20 + 2 f2_21 + h2_21 + 32ac2_21 + 2 42ac2_21
   + V2_21 = 0
 R176: - 0.015625 32ac2_22 - 0.0546875 42ac2_22 + e2_22 = 0
 R177: - V1_22 + 3 f2_22 + 2 h2_22 + 3 32ac2_22 + 4 42ac2_22 <= 0
 R178: - V1_22 - f2_21 - h2_21 + 2 f2_22 + h2_22 + 32ac2_22 + 2 42ac2_22
   + V2_22 = 0
 R179: - 0.015625 32ac2_23 - 0.0546875 42ac2_23 + e2_23 = 0
 R180: - V1_23 + 3 f2_23 + 2 h2_23 + 3 32ac2_23 + 4 42ac2_23 <= 0
 R181: - V1_23 - f2_22 - h2_22 + 2 f2_23 + h2_23 + 32ac2_23 + 2 42ac2_23
   + V2_23 = 0
 R182: - 0.015625 32ac2_24 - 0.0546875 42ac2_24 + e2_24 = 0
 R183: - V1_24 + 3 f2_24 + 2 h2_24 + 3 32ac2_24 + 4 42ac2_24 <= 0
 R184: - V1_24 - f2_23 - h2_23 + 2 f2_24 + h2_24 + 32ac2_24 + 2 42ac2_24
   + V2_24 = 0
 R185: - 0.015625 32ac2_25 - 0.0546875 42ac2_25 + e2_25 = 0
 R186: - V1_25 + 3 f2_25 + 2 h2_25 + 3 32ac2_25 + 4 42ac2_25 <= 0
 R187: - V1_25 - f2_24 - h2_24 + 2 f2_25 + h2_25 + 32ac2_25 + 2 42ac2_25
   + V2_25 = 0
 R188: V3_0 = 1
 R189: f3_0 = 0
 R190: h3_0 = 0
 R191: 32ac3_0 = 0
 R192: 42ac3_0 = 0
 R193: e3_0 = 0
 R194: - 0.015625 32ac3_1 - 0.0546875 42ac3_1 + e3_1 = 0
 R195: - V2_1 + 3 f3_1 + 2 h3_1 + 3 32ac3_1 + 4 42ac3_1 <= 0
 R196: - V2_1 - f3_0 - h3_0 + 2 f3_1 + h3_1 + 32ac3_1 + 2 42ac3_1 + V3_1
   = 0
 R197: - 0.015625 32ac3_2 - 0.0546875 42ac3_2 + e3_2 = 0
 R198: - V2_2 + 3 f3_2 + 2 h3_2 + 3 32ac3_2 + 4 42ac3_2 <= 0
 R199: - V2_2 - f3_1 - h3_1 + 2 f3_2 + h3_2 + 32ac3_2 + 2 42ac3_2 + V3_2
   = 0
 R200: - 0.015625 32ac3_3 - 0.0546875 42ac3_3 + e3_3 = 0
 R201: - V2_3 + 3 f3_3 + 2 h3_3 + 3 32ac3_3 + 4 42ac3_3 <= 0
 R202: - V2_3 - f3_2 - h3_2 + 2 f3_3 + h3_3 + 32ac3_3 + 2 42ac3_3 + V3_3
   = 0
 R203: - 0.015625 32ac3_4 - 0.0546875 42ac3_4 + e3_4 = 0
 R204: - V2_4 + 3 f3_4 + 2 h3_4 + 3 32ac3_4 + 4 42ac3_4 <= 0
 R205: - V2_4 - f3_3 - h3_3 + 2 f3_4 + h3_4 + 32ac3_4 + 2 42ac3_4 + V3_4
   = 0
 R206: - 0.015625 32ac3_5 - 0.0546875 42ac3_5 + e3_5 = 0
 R207: - V2_5 + 3 f3_5 + 2 h3_5 + 3 32ac3_5 + 4 42ac3_5 <= 0
 R208: - V2_5 - f3_4 - h3_4 + 2 f3_5 + h3_5 + 32ac3_5 + 2 42ac3_5 + V3_5
   = 0
 R209: - 0.015625 32ac3_6 - 0.0546875 42ac3_6 + e3_6 = 0
 R210: - V2_6 + 3 f3_6 + 2 h3_6 + 3 32ac3_6 + 4 42ac3_6 <= 0
 R211: - V2_6 - f3_5 - h3_5 + 2 f3_6 + h3_6 + 32ac3_6 + 2 42ac3_6 + V3_6
   = 0
 R212: - 0.015625 32ac3_7 - 0.0546875 42ac3_7 + e3_7 = 0
 R213: - V2_7 + 3 f3_7 + 2 h3_7 + 3 32ac3_7 + 4 42ac3_7 <= 0
 R214: - V2_7 - f3_6 - h3_6 + 2 f3_7 + h3_7 + 32ac3_7 + 2 42ac3_7 + V3_7
   = 0
 R215: - 0.015625 32ac3_8 - 0.0546875 42ac3_8 + e3_8 = 0
 R216: - V2_8 + 3 f3_8 + 2 h3_8 + 3 32ac3_8 + 4 42ac3_8 <= 0
 R217: - V2_8 - f3_7 - h3_7 + 2 f3_8 + h3_8 + 32ac3_8 + 2 42ac3_8 + V3_8
   = 0
 R218: - 0.015625 32ac3_9 - 0.0546875 42ac3_9 + e3_9 = 0
 R219: - V2_9 + 3 f3_9 + 2 h3_9 + 3 32ac3_9 + 4 42ac3_9 <= 0
 R220: - V2_9 - f3_8 - h3_8 + 2 f3_9 + h3_9 + 32ac3_9 + 2 42ac3_9 + V3_9
   = 0
 R221: - 0.015625 32ac3_10 - 0.0546875 42ac3_10 + e3_10 = 0
 R222: - V2_10 + 3 f3_10 + 2 h3_10 + 3 32ac3_10 + 4 42ac3_10 <= 0
 R223: - V2_10 - f3_9 - h3_9 + 2 f3_10 + h3_10 + 32ac3_10 + 2 42ac3_10
   + V3_10 = 0
 R224: - 0.015625 32ac3_11 - 0.0546875 42ac3_11 + e3_11 = 0
 R225: - V2_11 + 3 f3_11 + 2 h3_11 + 3 32ac3_11 + 4 42ac3_11 <= 0
 R226: - V2_11 - f3_10 - h3_10 + 2 f3_11 + h3_11 + 32ac3_11 + 2 42ac3_11
   + V3_11 = 0
 R227: - 0.015625 32ac3_12 - 0.0546875 42ac3_12 + e3_12 = 0
 R228: - V2_12 + 3 f3_12 + 2 h3_12 + 3 32ac3_12 + 4 42ac3_12 <= 0
 R229: - V2_12 - f3_11 - h3_11 + 2 f3_12 + h3_12 + 32ac3_12 + 2 42ac3_12
   + V3_12 = 0
 R230: - 0.015625 32ac3_13 - 0.0546875 42ac3_13 + e3_13 = 0
 R231: - V2_13 + 3 f3_13 + 2 h3_13 + 3 32ac3_13 + 4 42ac3_13 <= 0
 R232: - V2_13 - f3_12 - h3_12 + 2 f3_13 + h3_13 + 32ac3_13 + 2 42ac3_13
   + V3_13 = 0
 R233: - 0.015625 32ac3_14 - 0.0546875 42ac3_14 + e3_14 = 0
 R234: - V2_14 + 3 f3_14 + 2 h3_14 + 3 32ac3_14 + 4 42ac3_14 <= 0
 R235: - V2_14 - f3_13 - h3_13 + 2 f3_14 + h3_14 + 32ac3_14 + 2 42ac3_14
   + V3_14 = 0
 R236: - 0.015625 32ac3_15 - 0.0546875 42ac3_15 + e3_15 = 0
 R237: - V2_15 + 3 f3_15 + 2 h3_15 + 3 32ac3_15 + 4 42ac3_15 <= 0
 R238: - V2_15 - f3_14 - h3_14 + 2 f3_15 + h3_15 + 32ac3_15 + 2 42ac3_15
   + V3_15 = 0
 R239: - 0.015625 32ac3_16 - 0.0546875 42ac3_16 + e3_16 = 0
 R240: - V2_16 + 3 f3_16 + 2 h3_16 + 3 32ac3_16 + 4 42ac3_16 <= 0
 R241: - V2_16 - f3_15 - h3_15 + 2 f3_16 + h3_16 + 32ac3_16 + 2 42ac3_16
   + V3_16 = 0
 R242: - 0.015625 32ac3_17 - 0.0546875 42ac3_17 + e3_17 = 0
 R243: - V2_17 + 3 f3_17 + 2 h3_17 + 3 32ac3_17 + 4 42ac3_17 <= 0
 R244: - V2_17 - f3_16 - h3_16 + 2 f3_17 + h3_17 + 32ac3_17 + 2 42ac3_17
   + V3_17 = 0
 R245: - 0.015625 32ac3_18 - 0.0546875 42ac3_18 + e3_18 = 0
 R246: - V2_18 + 3 f3_18 + 2 h3_18 + 3 32ac3_18 + 4 42ac3_18 <= 0
 R247: - V2_18 - f3_17 - h3_17 + 2 f3_18 + h3_18 + 32ac3_18 + 2 42ac3_18
   + V3_18 = 0
 R248: - 0.015625 32ac3_19 - 0.0546875 42ac3_19 + e3_19 = 0
 R249: - V2_19 + 3 f3_19 + 2 h3_19 + 3 32ac3_19 + 4 42ac3_19 <= 0
 R250: - V2_19 - f3_18 - h3_18 + 2 f3_19 + h3_19 + 32ac3_19 + 2 42ac3_19
   + V3_19 = 0
 R251: - 0.015625 32ac3_20 - 0.0546875 42ac3_20 + e3_20 = 0
 R252: - V2_20 + 3 f3_20 + 2 h3_20 + 3 32ac3_20 + 4 42ac3_20 <= 0
 R253: - V2_20 - f3_19 - h3_19 + 2 f3_20 + h3_20 + 32ac3_20 + 2 42ac3_20
   + V3_20 = 0
 R254: - 0.015625 32ac3_21 - 0.0546875 42ac3_21 + e3_21 = 0
 R255: - V2_21 + 3 f3_21 + 2 h3_21 + 3 32ac3_21 + 4 42ac3_21 <= 0
 R256: - V2_21 - f3_20 - h3_20 + 2 f3_21 + h3_21 + 32ac3_21 + 2 42ac3_21
   + V3_21 = 0
 R257: - 0.015625 32ac3_22 - 0.0546875 42ac3_22 + e3_22 = 0
 R258: - V2_22 + 3 f3_22 + 2 h3_22 + 3 32ac3_22 + 4 42ac3_22 <= 0
 R259: - V2_22 - f3_21 - h3_21 + 2 f3_22 + h3_22 + 32ac3_22 + 2 42ac3_22
   + V3_22 = 0
 R260: - 0.015625 32ac3_23 - 0.0546875 42ac3_23 + e3_23 = 0
 R261: - V2_23 + 3 f3_23 + 2 h3_23 + 3 32ac3_23 + 4 42ac3_23 <= 0
 R262: - V2_23 - f3_22 - h3_22 + 2 f3_23 + h3_23 + 32ac3_23 + 2 42ac3_23
   + V3_23 = 0
 R263: - 0.015625 32ac3_24 - 0.0546875 42ac3_24 + e3_24 = 0
 R264: - V2_24 + 3 f3_24 + 2 h3_24 + 3 32ac3_24 + 4 42ac3_24 <= 0
 R265: - V2_24 - f3_23 - h3_23 + 2 f3_24 + h3_24 + 32ac3_24 + 2 42ac3_24
   + V3_24 = 0
 R266: - 0.015625 32ac3_25 - 0.0546875 42ac3_25 + e3_25 = 0
 R267: - V2_25 + 3 f3_25 + 2 h3_25 + 3 32ac3_25 + 4 42ac3_25 <= 0
 R268: - V2_25 - f3_24 - h3_24 + 2 f3_25 + h3_25 + 32ac3_25 + 2 42ac3_25
   + V3_25 = 0
 R269: V3_0 <= 2
 R270: V3_0 >= 1
 R271: V3_1 <= 2
 R272: V3_1 >= 1
 R273: V3_2 <= 2
 R274: V3_2 >= 1
 R275: V3_3 <= 2
 R276: V3_3 >= 1
 R277: V3_4 <= 2
 R278: V3_4 >= 1
 R279: V3_5 <= 2
 R280: V3_5 >= 1
 R281: V3_6 <= 2
 R282: V3_6 >= 1
 R283: V3_7 <= 2
 R284: V3_7 >= 1
 R285: V3_8 <= 2
 R286: V3_8 >= 1
 R287: V3_9 <= 2
 R288: V3_9 >= 1
 R289: V3_10 <= 2
 R290: V3_10 >= 1
 R291: V3_11 <= 2
 R292: V3_11 >= 1
 R293: V3_12 <= 2
 R294: V3_12 >= 1
 R295: V3_13 <= 2
 R296: V3_13 >= 1
 R297: V3_14 <= 2
 R298: V3_14 >= 1
 R299: V3_15 <= 2
 R300: V3_15 >= 1
 R301: V3_16 <= 2
 R302: V3_16 >= 1
 R303: V3_17 <= 2
 R304: V3_17 >= 1
 R305: V3_18 <= 2
 R306: V3_18 >= 1
 R307: V3_19 <= 2
 R308: V3_19 >= 1
 R309: V3_20 <= 2
 R310: V3_20 >= 1
 R311: V3_21 <= 2
 R312: V3_21 >= 1
 R313: V3_22 <= 2
 R314: V3_22 >= 1
 R315: V3_23 <= 2
 R316: V3_24 <= 2
 R317: f1_0 + f1_1 + f1_2 + f1_3 + f1_4 + f1_5 + f1_6 + f1_7 + f1_8 + f1_9
   + f1_10 + f1_11 + f1_12 + f1_13 + f1_14 + f1_15 + f1_16 + f1_17 + f1_18
   + f1_19 + f1_20 + f1_21 + f1_22 + f1_23 + f1_24 + f1_25 + f2_0 + f2_1
   + f2_2 + f2_3 + f2_4 + f2_5 + f2_6 + f2_7 + f2_8 + f2_9 + f2_10 + f2_11
   + f2_12 + f2_13 + f2_14 + f2_15 + f2_16 + f2_17 + f2_18 + f2_19 + f2_20
   + f2_21 + f2_22 + f2_23 + f2_24 + f2_25 + f3_0 + f3_1 + f3_2 + f3_3
   + f3_4 + f3_5 + f3_6 + f3_7 + f3_8 + f3_9 + f3_10 + f3_11 + f3_12
   + f3_13 + f3_14 + f3_15 + f3_16 + f3_17 + f3_18 + f3_19 + f3_20 + f3_21
   + f3_22 + f3_23 + f3_24 + f3_25 - fs = 0
 R318: h1_0 + h1_1 + h1_2 + h1_3 + h1_4 + h1_5 + h1_6 + h1_7 + h1_8 + h1_9
   + h1_10 + h1_11 + h1_12 + h1_13 + h1_14 + h1_15 + h1_16 + h1_17 + h1_18
   + h1_19 + h1_20 + h1_21 + h1_22 + h1_23 + h1_24 + h1_25 + h2_0 + h2_1
   + h2_2 + h2_3 + h2_4 + h2_5 + h2_6 + h2_7 + h2_8 + h2_9 + h2_10 + h2_11
   + h2_12 + h2_13 + h2_14 + h2_15 + h2_16 + h2_17 + h2_18 + h2_19 + h2_20
   + h2_21 + h2_22 + h2_23 + h2_24 + h2_25 + h3_0 + h3_1 + h3_2 + h3_3
   + h3_4 + h3_5 + h3_6 + h3_7 + h3_8 + h3_9 + h3_10 + h3_11 + h3_12
   + h3_13 + h3_14 + h3_15 + h3_16 + h3_17 + h3_18 + h3_19 + h3_20 + h3_21
   + h3_22 + h3_23 + h3_24 + h3_25 - hs = 0
 R319: 32ac1_0 + 32ac1_1 + 32ac1_2 + 32ac1_3 + 32ac1_4 + 32ac1_5 + 32ac1_6
   + 32ac1_7 + 32ac1_8 + 32ac1_9 + 32ac1_10 + 32ac1_11 + 32ac1_12
   + 32ac1_13 + 32ac1_14 + 32ac1_15 + 32ac1_16 + 32ac1_17 + 32ac1_18
   + 32ac1_19 + 32ac1_20 + 32ac1_21 + 32ac1_22 + 32ac1_23 + 32ac1_24
   + 32ac1_25 + 32ac2_0 + 32ac2_1 + 32ac2_2 + 32ac2_3 + 32ac2_4 + 32ac2_5
   + 32ac2_6 + 32ac2_7 + 32ac2_8 + 32ac2_9 + 32ac2_10 + 32ac2_11 + 32ac2_12
   + 32ac2_13 + 32ac2_14 + 32ac2_15 + 32ac2_16 + 32ac2_17 + 32ac2_18
   + 32ac2_19 + 32ac2_20 + 32ac2_21 + 32ac2_22 + 32ac2_23 + 32ac2_24
   + 32ac2_25 + 32ac3_0 + 32ac3_1 + 32ac3_2 + 32ac3_3 + 32ac3_4 + 32ac3_5
   + 32ac3_6 + 32ac3_7 + 32ac3_8 + 32ac3_9 + 32ac3_10 + 32ac3_11 + 32ac3_12
   + 32ac3_13 + 32ac3_14 + 32ac3_15 + 32ac3_16 + 32ac3_17 + 32ac3_18
   + 32ac3_19 + 32ac3_20 + 32ac3_21 + 32ac3_22 + 32ac3_23 + 32ac3_24
   + 32ac3_25 - ac32s = 0
 R320: 42ac1_0 + 42ac1_1 + 42ac1_2 + 42ac1_3 + 42ac1_4 + 42ac1_5 + 42ac1_6
   + 42ac1_7 + 42ac1_8 + 42ac1_9 + 42ac1_10 + 42ac1_11 + 42ac1_12
   + 42ac1_13 + 42ac1_14 + 42ac1_15 + 42ac1_16 + 42ac1_17 + 42ac1_18
   + 42ac1_19 + 42ac1_20 + 42ac1_21 + 42ac1_22 + 42ac1_23 + 42ac1_24
   + 42ac1_25 + 42ac2_0 + 42ac2_1 + 42ac2_2 + 42ac2_3 + 42ac2_4 + 42ac2_5
   + 42ac2_6 + 42ac2_7 + 42ac2_8 + 42ac2_9 + 42ac2_10 + 42ac2_11 + 42ac2_12
   + 42ac2_13 + 42ac2_14 + 42ac2_15 + 42ac2_16 + 42ac2_17 + 42ac2_18
   + 42ac2_19 + 42ac2_20 + 42ac2_21 + 42ac2_22 + 42ac2_23 + 42ac2_24
   + 42ac2_25 + 42ac3_0 + 42ac3_1 + 42ac3_2 + 42ac3_3 + 42ac3_4 + 42ac3_5
   + 42ac3_6 + 42ac3_7 + 42ac3_8 + 42ac3_9 + 42ac3_10 + 42ac3_11 + 42ac3_12
   + 42ac3_13 + 42ac3_14 + 42ac3_15 + 42ac3_16 + 42ac3_17 + 42ac3_18
   + 42ac3_19 + 42ac3_20 + 42ac3_21 + 42ac3_22 + 42ac3_23 + 42ac3_24
   + 42ac3_25 - ac42s = 0
 R321: - e1_0 - e2_0 - e3_0 + E_0 = 0
 R322: - e1_1 - e2_1 - e3_1 + E_1 = 0
 R323: - e1_2 - e2_2 - e3_2 + E_2 = 0
 R324: - e1_3 - e2_3 - e3_3 + E_3 = 0
 R325: - e1_4 - e2_4 - e3_4 + E_4 = 0
 R326: - e1_5 - e2_5 - e3_5 + E_5 = 0
 R327: - e1_6 - e2_6 - e3_6 + E_6 = 0
 R328: - e1_7 - e2_7 - e3_7 + E_7 = 0
 R329: - e1_8 - e2_8 - e3_8 + E_8 = 0
 R330: - e1_9 - e2_9 - e3_9 + E_9 = 0
 R331: - e1_10 - e2_10 - e3_10 + E_10 = 0
 R332: - e1_11 - e2_11 - e3_11 + E_11 = 0
 R333: - e1_12 - e2_12 - e3_12 + E_12 = 0
 R334: - e1_13 - e2_13 - e3_13 + E_13 = 0
 R335: - e1_14 - e2_14 - e3_14 + E_14 = 0
 R336: - e1_15 - e2_15 - e3_15 + E_15 = 0
 R337: - e1_16 - e2_16 - e3_16 + E_16 = 0
 R338: - e1_17 - e2_17 - e3_17 + E_17 = 0
 R339: - e1_18 - e2_18 - e3_18 + E_18 = 0
 R340: - e1_19 - e2_19 - e3_19 + E_19 = 0
 R341: - e1_20 - e2_20 - e3_20 + E_20 = 0
 R342: - e1_21 - e2_21 - e3_21 + E_21 = 0
 R343: - e1_22 - e2_22 - e3_22 + E_22 = 0
 R344: - e1_23 - e2_23 - e3_23 + E_23 = 0
 R345: - e1_24 - e2_24 - e3_24 + E_24 = 0
 R346: - e1_25 - e2_25 - e3_25 + E_25 = 0
 R347: - E_0 - 2 E_1 - 4 E_2 - 8 E_3 - 16 E_4 - 32 E_5 - 64 E_6 - 128 E_7
   - 256 E_8 - 512 E_9 - 1024 E_10 - 2048 E_11 - 4096 E_12 - 8192 E_13
   - 16384 E_14 - 32768 E_15 - 65536 E_16 - 131072 E_17 - 262144 E_18
   - 524288 E_19 - 1.048576e+06 E_20 - 2.097152e+06 E_21
   - 4.194304e+06 E_22 - 8.388608e+06 E_23 - 1.6777216e+07 E_24
   - 3.3554432e+07 E_25 + E = 0
 R348: E <= 5400
Bounds
Generals
 V0_0 V0_1 V0_2 V0_3 V0_4 V0_5 V0_6 V0_7 V0_8 V0_9 V0_10 V0_11 V0_12 V0_13
 V0_14 V0_15 V0_16 V0_17 V0_18 V0_19 V0_20 V0_21 V0_22 V0_23 V0_24 V0_25
 f1_0 h1_0 32ac1_0 42ac1_0 V1_0 f1_1 h1_1 32ac1_1 42ac1_1 V1_1 f1_2 h1_2
 32ac1_2 42ac1_2 V1_2 f1_3 h1_3 32ac1_3 42ac1_3 V1_3 f1_4 h1_4 32ac1_4
 42ac1_4 V1_4 f1_5 h1_5 32ac1_5 42ac1_5 V1_5 f1_6 h1_6 32ac1_6 42ac1_6 V1_6
 f1_7 h1_7 32ac1_7 42ac1_7 V1_7 f1_8 h1_8 32ac1_8 42ac1_8 V1_8 f1_9 h1_9
 32ac1_9 42ac1_9 V1_9 f1_10 h1_10 32ac1_10 42ac1_10 V1_10 f1_11 h1_11
 32ac1_11 42ac1_11 V1_11 f1_12 h1_12 32ac1_12 42ac1_12 V1_12 f1_13 h1_13
 32ac1_13 42ac1_13 V1_13 f1_14 h1_14 32ac1_14 42ac1_14 V1_14 f1_15 h1_15
 32ac1_15 42ac1_15 V1_15 f1_16 h1_16 32ac1_16 42ac1_16 V1_16 f1_17 h1_17
 32ac1_17 42ac1_17 V1_17 f1_18 h1_18 32ac1_18 42ac1_18 V1_18 f1_19 h1_19
 32ac1_19 42ac1_19 V1_19 f1_20 h1_20 32ac1_20 42ac1_20 V1_20 f1_21 h1_21
 32ac1_21 42ac1_21 V1_21 f1_22 h1_22 32ac1_22 42ac1_22 V1_22 f1_23 h1_23
 32ac1_23 42ac1_23 V1_23 f1_24 h1_24 32ac1_24 42ac1_24 V1_24 f1_25 h1_25
 32ac1_25 42ac1_25 V1_25 f2_0 h2_0 32ac2_0 42ac2_0 V2_0 f2_1 h2_1 32ac2_1
 42ac2_1 V2_1 f2_2 h2_2 32ac2_2 42ac2_2 V2_2 f2_3 h2_3 32ac2_3 42ac2_3 V2_3
 f2_4 h2_4 32ac2_4 42ac2_4 V2_4 f2_5 h2_5 32ac2_5 42ac2_5 V2_5 f2_6 h2_6
 32ac2_6 42ac2_6 V2_6 f2_7 h2_7 32ac2_7 42ac2_7 V2_7 f2_8 h2_8 32ac2_8
 42ac2_8 V2_8 f2_9 h2_9 32ac2_9 42ac2_9 V2_9 f2_10 h2_10 32ac2_10 42ac2_10
 V2_10 f2_11 h2_11 32ac2_11 42ac2_11 V2_11 f2_12 h2_12 32ac2_12 42ac2_12
 V2_12 f2_13 h2_13 32ac2_13 42ac2_13 V2_13 f2_14 h2_14 32ac2_14 42ac2_14
 V2_14 f2_15 h2_15 32ac2_15 42ac2_15 V2_15 f2_16 h2_16 32ac2_16 42ac2_16
 V2_16 f2_17 h2_17 32ac2_17 42ac2_17 V2_17 f2_18 h2_18 32ac2_18 42ac2_18
 V2_18 f2_19 h2_19 32ac2_19 42ac2_19 V2_19 f2_20 h2_20 32ac2_20 42ac2_20
 V2_20 f2_21 h2_21 32ac2_21 42ac2_21 V2_21 f2_22 h2_22 32ac2_22 42ac2_22
 V2_22 f2_23 h2_23 32ac2_23 42ac2_23 V2_23 f2_24 h2_24 32ac2_24 42ac2_24
 V2_24 f2_25 h2_25 32ac2_25 42ac2_25 V2_25 f3_0 h3_0 32ac3_0 42ac3_0 V3_0
 f3_1 h3_1 32ac3_1 42ac3_1 V3_1 f3_2 h3_2 32ac3_2 42ac3_2 V3_2 f3_3 h3_3
 32ac3_3 42ac3_3 V3_3 f3_4 h3_4 32ac3_4 42ac3_4 V3_4 f3_5 h3_5 32ac3_5
 42ac3_5 V3_5 f3_6 h3_6 32ac3_6 42ac3_6 V3_6 f3_7 h3_7 32ac3_7 42ac3_7 V3_7
 f3_8 h3_8 32ac3_8 42ac3_8 V3_8 f3_9 h3_9 32ac3_9 42ac3_9 V3_9 f3_10 h3_10
 32ac3_10 42ac3_10 V3_10 f3_11 h3_11 32ac3_11 42ac3_11 V3_11 f3_12 h3_12
 32ac3_12 42ac3_12 V3_12 f3_13 h3_13 32ac3_13 42ac3_13 V3_13 f3_14 h3_14
 32ac3_14 42ac3_14 V3_14 f3_15 h3_15 32ac3_15 42ac3_15 V3_15 f3_16 h3_16
 32ac3_16 42ac3_16 V3_16 f3_17 h3_17 32ac3_17 42ac3_17 V3_17 f3_18 h3_18
 32ac3_18 42ac3_18 V3_18 f3_19 h3_19 32ac3_19 42ac3_19 V3_19 f3_20 h3_20
 32ac3_20 42ac3_20 V3_20 f3_21 h3_21 32ac3_21 42ac3_21 V3_21 f3_22 h3_22
 32ac3_22 42ac3_22 V3_22 f3_23 h3_23 32ac3_23 42ac3_23 V3_23 f3_24 h3_24
 32ac3_24 42ac3_24 V3_24 f3_25 h3_25 32ac3_25 42ac3_25 V3_25 hs fs ac32s
 ac42s
End
