GAACT_v0/CEOA/12/5400/gurobi.sol
# Objective value = 297.6
V0_0 1
V0_1 2
V0_2 3
V0_3 4
V0_4 5
V0_5 6
V0_6 7
V0_7 8
V0_8 9
V0_9 10
V0_10 11
V0_11 12
V0_12 11
V0_13 10
V0_14 9
V0_15 8
V0_16 7
V0_17 6
V0_18 5
V0_19 4
V0_20 3
V0_21 2
V0_22 1
V0_23 0
V0_24 0
V0_25 0
f1_0 0
h1_0 0
32ac1_0 0
42ac1_0 0
e1_0 0
V1_0 1
f1_1 0
h1_1 0
32ac1_1 0
42ac1_1 0
e1_1 0
V1_1 2
f1_2 0
h1_2 0
32ac1_2 0
42ac1_2 0
e1_2 0
V1_2 3
f1_3 0
h1_3 0
32ac1_3 0
42ac1_3 0
e1_3 0
V1_3 4
f1_4 0
h1_4 0
32ac1_4 0
42ac1_4 0
e1_4 0
V1_4 5
f1_5 0
h1_5 0
32ac1_5 0
42ac1_5 0
e1_5 0
V1_5 6
f1_6 0
h1_6 0
32ac1_6 0
42ac1_6 0
e1_6 0
V1_6 7
f1_7 0
h1_7 0
32ac1_7 0
42ac1_7 0
e1_7 0
V1_7 8
f1_8 0
h1_8 0
32ac1_8 0
42ac1_8 1
e1_8 0.0546875
V1_8 7
f1_9 0
h1_9 0
32ac1_9 0
42ac1_9 2
e1_9 0.109375
V1_9 6
f1_10 0
h1_10 0
32ac1_10 1
42ac1_10 2
e1_10 0.125
V1_10 6
f1_11 0
h1_11 0
32ac1_11 0
42ac1_11 3
e1_11 0.1640625
V1_11 6
f1_12 0
h1_12 0
32ac1_12 1
42ac1_12 2
e1_12 0.125
V1_12 6
f1_13 0
h1_13 0
32ac1_13 2
42ac1_13 1
e1_13 0.0859375
V1_13 6
f1_14 0
h1_14 0
32ac1_14 3
42ac1_14 0
e1_14 0.046875
V1_14 6
f1_15 1
h1_15 0
32ac1_15 0
42ac1_15 0
e1_15 0
V1_15 6
f1_16 2
h1_16 0
32ac1_16 0
42ac1_16 0
e1_16 0
V1_16 4
f1_17 2
h1_17 0
32ac1_17 0
42ac1_17 0
e1_17 0
V1_17 4
f1_18 1
h1_18 1
32ac1_18 0
42ac1_18 0
e1_18 0
V1_18 4
f1_19 1
h1_19 0
32ac1_19 0
42ac1_19 0
e1_19 0
V1_19 4
f1_20 1
h1_20 0
32ac1_20 0
42ac1_20 0
e1_20 0
V1_20 2
f1_21 0
h1_21 0
32ac1_21 0
42ac1_21 0
e1_21 0
V1_21 3
f1_22 0
h1_22 0
32ac1_22 0
42ac1_22 0
e1_22 0
V1_22 1
f1_23 0
h1_23 0
32ac1_23 0
42ac1_23 0
e1_23 0
V1_23 0
f1_24 0
h1_24 0
32ac1_24 0
42ac1_24 0
e1_24 0
V1_24 0
f1_25 0
h1_25 0
32ac1_25 0
42ac1_25 0
e1_25 0
V1_25 0
f2_0 0
h2_0 0
32ac2_0 0
42ac2_0 0
e2_0 0
V2_0 1
f2_1 0
h2_1 0
32ac2_1 0
42ac2_1 0
e2_1 0
V2_1 2
f2_2 0
h2_2 0
32ac2_2 1
42ac2_2 0
e2_2 0.015625
V2_2 2
f2_3 0
h2_3 0
32ac2_3 0
42ac2_3 0
e2_3 0
V2_3 4
f2_4 0
h2_4 0
32ac2_4 0
42ac2_4 1
e2_4 0.0546875
V2_4 3
f2_5 0
h2_5 0
32ac2_5 0
42ac2_5 1
e2_5 0.0546875
V2_5 4
f2_6 0
h2_6 0
32ac2_6 1
42ac2_6 1
e2_6 0.0703125
V2_6 4
f2_7 0
h2_7 0
32ac2_7 0
42ac2_7 2
e2_7 0.109375
V2_7 4
f2_8 0
h2_8 0
32ac2_8 1
42ac2_8 1
e2_8 0.0703125
V2_8 4
f2_9 0
h2_9 0
32ac2_9 0
42ac2_9 1
e2_9 0.0546875
V2_9 4
f2_10 0
h2_10 0
32ac2_10 0
42ac2_10 1
e2_10 0.0546875
V2_10 4
f2_11 0
h2_11 0
32ac2_11 2
42ac2_11 0
e2_11 0.03125
V2_11 4
f2_12 0
h2_12 0
32ac2_12 2
42ac2_12 0
e2_12 0.03125
V2_12 4
f2_13 0
h2_13 0
32ac2_13 2
42ac2_13 0
e2_13 0.03125
V2_13 4
f2_14 0
h2_14 0
32ac2_14 2
42ac2_14 0
e2_14 0.03125
V2_14 4
f2_15 2
h2_15 0
32ac2_15 0
42ac2_15 0
e2_15 0
V2_15 2
f2_16 1
h2_16 0
32ac2_16 0
42ac2_16 0
e2_16 0
V2_16 4
f2_17 1
h2_17 0
32ac2_17 0
42ac2_17 0
e2_17 0
V2_17 3
f2_18 1
h2_18 0
32ac2_18 0
42ac2_18 0
e2_18 0
V2_18 3
f2_19 1
h2_19 0
32ac2_19 0
42ac2_19 0
e2_19 0
V2_19 3
f2_20 0
h2_20 0
32ac2_20 0
42ac2_20 0
e2_20 0
V2_20 3
f2_21 1
h2_21 0
32ac2_21 0
42ac2_21 0
e2_21 0
V2_21 1
f2_22 0
h2_22 0
32ac2_22 0
42ac2_22 0
e2_22 0
V2_22 2
f2_23 0
h2_23 0
32ac2_23 0
42ac2_23 0
e2_23 0
V2_23 0
f2_24 0
h2_24 0
32ac2_24 0
42ac2_24 0
e2_24 0
V2_24 0
f2_25 0
h2_25 0
32ac2_25 0
42ac2_25 0
e2_25 0
V2_25 0
f3_0 0
h3_0 0
32ac3_0 0
42ac3_0 0
e3_0 0
V3_0 1
f3_1 0
h3_1 0
32ac3_1 0
42ac3_1 0
e3_1 0
V3_1 2
f3_2 0
h3_2 0
32ac3_2 0
42ac3_2 0
e3_2 0
V3_2 2
f3_3 0
h3_3 0
32ac3_3 0
42ac3_3 1
e3_3 0.0546875
V3_3 2
f3_4 0
h3_4 0
32ac3_4 1
42ac3_4 0
e3_4 0.015625
V3_4 2
f3_5 0
h3_5 0
32ac3_5 0
42ac3_5 1
e3_5 0.0546875
V3_5 2
f3_6 0
h3_6 0
32ac3_6 0
42ac3_6 1
e3_6 0.0546875
V3_6 2
f3_7 0
h3_7 0
32ac3_7 0
42ac3_7 1
e3_7 0.0546875
V3_7 2
f3_8 0
h3_8 0
32ac3_8 0
42ac3_8 1
e3_8 0.0546875
V3_8 2
f3_9 0
h3_9 0
32ac3_9 0
42ac3_9 1
e3_9 0.0546875
V3_9 2
f3_10 0
h3_10 0
32ac3_10 0
42ac3_10 1
e3_10 0.0546875
V3_10 2
f3_11 0
h3_11 0
32ac3_11 0
42ac3_11 1
e3_11 0.0546875
V3_11 2
f3_12 0
h3_12 0
32ac3_12 0
42ac3_12 1
e3_12 0.0546875
V3_12 2
f3_13 0
h3_13 0
32ac3_13 0
42ac3_13 1
e3_13 0.0546875
V3_13 2
f3_14 0
h3_14 0
32ac3_14 0
42ac3_14 1
e3_14 0.0546875
V3_14 2
f3_15 0
h3_15 0
32ac3_15 0
42ac3_15 0
e3_15 0
V3_15 2
f3_16 1
h3_16 0
32ac3_16 0
42ac3_16 0
e3_16 0
V3_16 2
f3_17 1
h3_17 0
32ac3_17 0
42ac3_17 0
e3_17 0
V3_17 2
f3_18 1
h3_18 0
32ac3_18 0
42ac3_18 0
e3_18 0
V3_18 2
f3_19 1
h3_19 0
32ac3_19 0
42ac3_19 0
e3_19 0
V3_19 2
f3_20 1
h3_20 0
32ac3_20 0
42ac3_20 0
e3_20 0
V3_20 2
f3_21 0
h3_21 0
32ac3_21 0
42ac3_21 0
e3_21 0
V3_21 2
f3_22 0
h3_22 0
32ac3_22 0
42ac3_22 0
e3_22 0
V3_22 2
f3_23 0
h3_23 0
32ac3_23 0
42ac3_23 0
e3_23 0
V3_23 0
f3_24 0
h3_24 0
32ac3_24 0
42ac3_24 0
e3_24 0
V3_24 0
f3_25 0
h3_25 0
32ac3_25 0
42ac3_25 0
e3_25 0
V3_25 0
hs 1
fs 20
ac32s 19
ac42s 30
E_0 0
E_1 0
E_2 0.015625
E_3 0.0546875
E_4 0.0703125
E_5 0.109375
E_6 0.125
E_7 0.1640625
E_8 0.1796875
E_9 0.21875
E_10 0.234375
E_11 0.25
E_12 0.2109375
E_13 0.171875
E_14 0.1328125
E_15 0
E_16 0
E_17 0
E_18 0
E_19 0
E_20 0
E_21 0
E_22 0
E_23 0
E_24 0
E_25 0
E 5392.125
